(set-logic BV) (define-fun origCir ((n149 Bool) (n325 Bool) (n254 Bool) (n207 Bool) (i46 Bool)) Bool (xor (and (xor n325 (not (and n254 n207))) n149) i46)) (synth-fun skel ((n149 Bool) (n325 Bool) (n254 Bool) (n207 Bool) (i46 Bool)) Bool) (declare-var n149 Bool) (declare-var n325 Bool) (declare-var n254 Bool) (declare-var n207 Bool) (declare-var i46 Bool) (constraint (= (origCir n149 n325 n254 n207 i46) (skel n149 n325 n254 n207 i46))) (check-synth)
